StudentsNr = 10;
InstructorsNr = 57;
DaysNr = 2;
SlotsPerDay = 20;
AvailabilitySlotsLenght = 5;
RoomNr = 1;
ProgrammNr = 1;
DegreeNr = 2;
RolesNr = 3;
CoursesNr = 9;
InstructorsProgramm = [{1}, {1}, {1}, {1}, {1}, {1}, {1}, {1}, {1}, {1}, {1}, {1}, {1}, {1}, {1}, {1}, {1}, {1}, {1}, {1}, {1}, {1}, {1}, {1}, {1}, {1}, {1}, {1}, {1}, {1}, {1}, {1}, {1}, {1}, {1}, {1}, {1}, {1}, {1}, {1}, {1}, {1}, {1}, {1}, {1}, {1}, {1}, {1}, {1}, {1}, {1}, {1}, {1}, {1}, {1}, {1}, {1}];
InstructorRolesPerProgramm = [|{1, 2, 4, 8, 9, 12, 13, 16, 17, 21, 24, 26, 27, 29, 36, 39, 40, 44, 45, 46, 50}, {1, 4, 5, 7, 9, 10, 12, 13, 16, 17, 18, 21, 23, 24, 26, 27, 34, 36, 37, 42, 45, 46, 49, 51, 56, 57}, {4, 5, 6, 10, 11, 13, 16, 19, 20, 21, 22, 23, 25, 26, 27, 31, 36, 39, 40, 41, 42, 44, 49, 50, 55, 57}|];
InstructorsAvailability = [|1, 1, 1, 1, 1, 1, 1, 0, |1, 1, 1, 1, 1, 1, 0, 1, |1, 1, 1, 1, 1, 1, 1, 1, |1, 1, 1, 1, 1, 1, 1, 1, |1, 1, 1, 1, 0, 1, 0, 1, |1, 1, 1, 1, 1, 1, 1, 1, |1, 1, 1, 1, 1, 1, 1, 1, |0, 1, 1, 1, 1, 0, 1, 0, |0, 1, 1, 0, 1, 0, 0, 0, |1, 1, 1, 1, 1, 1, 1, 1, |0, 1, 0, 1, 1, 0, 1, 0, |1, 1, 1, 1, 1, 1, 1, 1, |1, 1, 0, 0, 0, 1, 1, 1, |0, 1, 0, 1, 1, 1, 1, 1, |0, 1, 0, 1, 1, 1, 1, 1, |0, 0, 1, 1, 1, 1, 1, 1, |1, 1, 1, 1, 1, 1, 0, 1, |1, 1, 1, 1, 1, 1, 1, 1, |1, 1, 1, 1, 1, 1, 1, 1, |1, 1, 1, 1, 1, 1, 1, 1, |1, 1, 1, 1, 0, 1, 1, 1, |1, 1, 1, 1, 0, 0, 1, 1, |0, 1, 1, 1, 1, 1, 1, 1, |1, 0, 1, 1, 0, 1, 0, 1, |1, 0, 1, 1, 1, 1, 1, 1, |1, 1, 1, 1, 1, 1, 1, 1, |1, 1, 1, 1, 1, 1, 1, 1, |1, 1, 1, 1, 1, 1, 1, 1, |1, 1, 0, 1, 1, 0, 1, 1, |1, 0, 1, 1, 1, 1, 1, 1, |1, 1, 1, 1, 1, 1, 1, 1, |0, 1, 1, 1, 1, 1, 1, 0, |1, 0, 0, 1, 1, 1, 1, 1, |0, 1, 1, 1, 0, 0, 0, 0, |1, 1, 1, 0, 1, 1, 1, 1, |1, 1, 0, 1, 1, 1, 1, 1, |0, 1, 1, 0, 1, 1, 1, 1, |1, 1, 1, 1, 1, 1, 0, 1, |1, 1, 1, 1, 0, 0, 1, 1, |0, 1, 1, 1, 1, 1, 1, 1, |0, 1, 1, 1, 1, 1, 0, 1, |0, 1, 1, 1, 1, 1, 1, 1, |1, 1, 1, 1, 1, 1, 1, 1, |1, 1, 1, 1, 0, 1, 1, 1, |1, 0, 0, 0, 1, 1, 1, 1, |1, 1, 1, 1, 1, 1, 1, 1, |0, 1, 1, 1, 1, 1, 1, 1, |0, 1, 1, 1, 1, 1, 0, 0, |0, 0, 0, 1, 1, 0, 0, 1, |0, 1, 1, 1, 1, 1, 0, 0, |1, 1, 1, 0, 1, 1, 1, 1, |0, 1, 1, 0, 0, 1, 1, 1, |1, 1, 0, 1, 1, 1, 1, 1, |0, 1, 1, 1, 1, 1, 1, 1, |1, 1, 1, 1, 1, 1, 1, 1, |0, 0, 0, 0, 0, 1, 0, 1, |1, 1, 1, 1, 1, 1, 1, 1|];
StudentsProgramm = [1, 1, 1, 1, 1, 1, 1, 1, 1, 1];
StudentsDegree = [2, 2, 2, 2, 1, 2, 1, 1, 1, 1];
StudentsSupervisorId = [9, 13, 35, 1, 1, 54, 8, 56, 42, 1];
StudentsCourseIds = [{4, 7, 8}, {2, 7, 8}, {2, 3, 5}, {2, 3, 6}, {7}, {2, 6, 9}, {2}, {9}, {4}, {2}];
StudentsAvailability = [|1, 1, 1, 0, 1, 1, 1, 1, |0, 1, 0, 0, 1, 1, 0, 0, |0, 0, 1, 1, 1, 1, 1, 1, |1, 1, 1, 1, 1, 1, 1, 1, |1, 1, 1, 1, 1, 0, 0, 0, |1, 0, 0, 1, 1, 1, 1, 1, |1, 1, 1, 1, 1, 0, 0, 0, |0, 1, 1, 1, 1, 0, 1, 1, |0, 1, 0, 1, 1, 1, 0, 1, |1, 1, 1, 1, 1, 1, 1, 1|];
TheoryticalMinCard = [0, 0, 0, 0, 0, 0, 0, 0, 0, 0];
CoursesInstructorIds = [{33, 39, 45, 48, 49, 56}, {2, 6, 9, 10, 13, 14, 15, 16, 19, 20, 21, 24, 26, 27, 28, 29, 31, 33, 34, 35, 37, 38, 39, 40, 42, 45, 46, 50, 51, 52, 54}, {3, 4, 12, 14, 20, 23, 24, 25, 26, 28, 29, 31, 32, 33, 36, 41, 44, 45, 47, 54, 56, 57}, {1, 2, 3, 4, 5, 8, 11, 13, 15, 16, 18, 19, 20, 21, 22, 23, 24, 25, 26, 27, 28, 29, 33, 34, 36, 37, 38, 39, 40, 43, 44, 46, 48, 49, 50, 51, 52, 53, 54, 55, 56, 57}, {2, 4, 6, 7, 8, 11, 12, 13, 14, 15, 16, 18, 20, 22, 23, 24, 27, 28, 30, 31, 36, 39, 40, 41, 42, 44, 46, 50, 51, 55}, {1, 4, 6, 7, 8, 9, 10, 11, 16, 21, 22, 23, 25, 26, 28, 31, 32, 33, 35, 36, 37, 39, 42, 43, 45, 46, 47, 49, 50, 51, 53, 56, 57}, {1, 2, 3, 8, 9, 10, 11, 15, 16, 19, 20, 22, 26, 27, 28, 33, 38, 39, 40, 45, 46, 47, 48, 49, 54, 55}, {2, 8, 10, 14, 15, 16, 19, 20, 21, 25, 32, 33, 36, 37, 38, 40, 44, 52}, {4, 6, 13, 17, 19, 22, 25, 29, 30, 35, 40, 41, 42, 47, 48, 49, 50, 52, 53, 54, 55}];
RolesDemands = [7, 14, 6];
RolesContinuity = [1, 3];
ExamLen = [1, 1, 1, 1, 2, 1, 2, 2, 2, 2];
LunchTsMinLen = 1;
LunchStarts = [9..13, 27..34];
SupervisorAvailable = 0;
OptimalLunchLenght = [0, 1];
OptimalStartTs = [2, 0];
OptimalFinishTs = [0, 20];
MinimizeRooms = 300;
RolesSoftContinuity = [|1, 2, 3|3, 3, 4|];
SameDegreeInRoom = 0;
Mergeability = 2;
